c Generated map
c Size: 12 * 12, weights in range: 1 to 10, walls: True, with ratio 0.1
c dim 4 of 5
c
p sp 144 213
c graph contains 144 nodes and 213 arcs
c
a 1 13 8
a 13 1 8
a 1 2 5
a 2 1 5
a 2 14 2
a 14 2 2
a 2 3 1
a 3 2 1
a 3 15 6
a 15 3 6
a 3 4 3
a 4 3 3
a 4 16 3
a 16 4 3
a 6 18 5
a 18 6 5
a 8 20 1
a 20 8 1
a 8 9 3
a 9 8 3
a 9 21 10
a 21 9 10
a 9 10 2
a 10 9 2
a 10 22 3
a 22 10 3
a 10 11 2
a 11 10 2
a 11 23 8
a 23 11 8
a 11 12 3
a 12 11 3
a 12 24 2
a 24 12 2
a 13 25 10
a 25 13 10
a 13 14 1
a 14 13 1
a 14 26 9
a 26 14 9
a 14 15 7
a 15 14 7
a 15 27 7
a 27 15 7
a 15 16 9
a 16 15 9
a 16 17 5
a 17 16 5
a 17 29 8
a 29 17 8
a 17 18 6
a 18 17 6
a 18 30 5
a 30 18 5
a 18 19 6
a 19 18 6
a 19 31 2
a 31 19 2
a 19 20 7
a 20 19 7
a 20 32 6
a 32 20 6
a 20 21 1
a 21 20 1
a 21 33 8
a 33 21 8
a 21 22 3
a 22 21 3
a 22 34 5
a 34 22 5
a 22 23 5
a 23 22 5
a 23 24 8
a 24 23 8
a 24 36 4
a 36 24 4
a 25 26 8
a 26 25 8
a 26 38 5
a 38 26 5
a 26 27 5
a 27 26 5
a 27 39 3
a 39 27 3
a 29 41 4
a 41 29 4
a 29 30 10
a 30 29 10
a 30 42 8
a 42 30 8
a 30 31 1
a 31 30 1
a 31 43 1
a 43 31 1
a 31 32 5
a 32 31 5
a 32 44 1
a 44 32 1
a 32 33 3
a 33 32 3
a 33 45 9
a 45 33 9
a 33 34 8
a 34 33 8
a 34 46 3
a 46 34 3
a 36 48 2
a 48 36 2
a 38 50 5
a 50 38 5
a 38 39 5
a 39 38 5
a 39 51 9
a 51 39 9
a 39 40 3
a 40 39 3
a 40 52 3
a 52 40 3
a 40 41 10
a 41 40 10
a 41 53 3
a 53 41 3
a 41 42 5
a 42 41 5
a 42 54 7
a 54 42 7
a 42 43 10
a 43 42 10
a 43 44 9
a 44 43 9
a 44 56 8
a 56 44 8
a 44 45 10
a 45 44 10
a 45 57 10
a 57 45 10
a 45 46 9
a 46 45 9
a 46 58 7
a 58 46 7
a 46 47 6
a 47 46 6
a 47 59 7
a 59 47 7
a 47 48 4
a 48 47 4
a 49 61 7
a 61 49 7
a 49 50 6
a 50 49 6
a 50 62 1
a 62 50 1
a 50 51 2
a 51 50 2
a 51 63 6
a 63 51 6
a 51 52 2
a 52 51 2
a 52 64 5
a 64 52 5
a 52 53 10
a 53 52 10
a 53 65 6
a 65 53 6
a 53 54 2
a 54 53 2
a 54 66 5
a 66 54 5
a 56 68 7
a 68 56 7
a 56 57 1
a 57 56 1
a 57 69 1
a 69 57 1
a 57 58 10
a 58 57 10
a 58 70 1
a 70 58 1
a 58 59 3
a 59 58 3
a 59 71 3
a 71 59 3
a 61 73 10
a 73 61 10
a 61 62 5
a 62 61 5
a 62 74 7
a 74 62 7
a 62 63 4
a 63 62 4
a 63 75 5
a 75 63 5
a 63 64 4
a 64 63 4
a 64 76 1
a 76 64 1
a 64 65 2
a 65 64 2
a 65 66 9
a 66 65 9
a 66 78 4
a 78 66 4
a 66 67 1
a 67 66 1
a 67 79 5
a 79 67 5
a 67 68 4
a 68 67 4
a 68 69 5
a 69 68 5
a 69 81 2
a 81 69 2
a 69 70 6
a 70 69 6
a 70 82 10
a 82 70 10
a 70 71 6
a 71 70 6
a 71 83 1
a 83 71 1
a 71 72 7
a 72 71 7
a 72 84 2
a 84 72 2
a 73 85 1
a 85 73 1
a 73 74 7
a 74 73 7
a 74 86 4
a 86 74 4
a 74 75 3
a 75 74 3
a 75 87 9
a 87 75 9
a 75 76 1
a 76 75 1
a 76 88 9
a 88 76 9
a 78 90 5
a 90 78 5
a 78 79 6
a 79 78 6
a 79 91 7
a 91 79 7
a 81 93 2
a 93 81 2
a 81 82 2
a 82 81 2
a 82 94 7
a 94 82 7
a 82 83 6
a 83 82 6
a 83 95 2
a 95 83 2
a 83 84 9
a 84 83 9
a 84 96 8
a 96 84 8
a 85 97 6
a 97 85 6
a 85 86 8
a 86 85 8
a 86 98 2
a 98 86 2
a 86 87 8
a 87 86 8
a 87 99 7
a 99 87 7
a 87 88 2
a 88 87 2
a 88 100 2
a 100 88 2
a 88 89 3
a 89 88 3
a 89 101 1
a 101 89 1
a 89 90 2
a 90 89 2
a 90 102 7
a 102 90 7
a 90 91 8
a 91 90 8
a 91 92 3
a 92 91 3
a 92 104 9
a 104 92 9
a 92 93 9
a 93 92 9
a 93 105 7
a 105 93 7
a 93 94 8
a 94 93 8
a 94 106 8
a 106 94 8
a 94 95 9
a 95 94 9
a 95 96 3
a 96 95 3
a 96 108 5
a 108 96 5
a 97 109 10
a 109 97 10
a 97 98 4
a 98 97 4
a 98 110 3
a 110 98 3
a 98 99 2
a 99 98 2
a 99 111 5
a 111 99 5
a 99 100 1
a 100 99 1
a 100 112 2
a 112 100 2
a 100 101 3
a 101 100 3
a 101 113 5
a 113 101 5
a 101 102 6
a 102 101 6
a 102 114 4
a 114 102 4
a 104 105 8
a 105 104 8
a 105 117 4
a 117 105 4
a 105 106 2
a 106 105 2
a 106 118 7
a 118 106 7
a 108 120 8
a 120 108 8
a 109 121 3
a 121 109 3
a 109 110 3
a 110 109 3
a 110 122 8
a 122 110 8
a 110 111 9
a 111 110 9
a 111 123 6
a 123 111 6
a 111 112 6
a 112 111 6
a 112 124 4
a 124 112 4
a 112 113 7
a 113 112 7
a 113 125 5
a 125 113 5
a 113 114 3
a 114 113 3
a 114 115 7
a 115 114 7
a 115 127 3
a 127 115 3
a 117 129 10
a 129 117 10
a 117 118 1
a 118 117 1
a 118 130 6
a 130 118 6
a 118 119 5
a 119 118 5
a 119 131 2
a 131 119 2
a 119 120 3
a 120 119 3
a 120 132 8
a 132 120 8
a 121 133 1
a 133 121 1
a 121 122 3
a 122 121 3
a 122 134 5
a 134 122 5
a 122 123 10
a 123 122 10
a 123 135 6
a 135 123 6
a 123 124 6
a 124 123 6
a 124 136 9
a 136 124 9
a 124 125 9
a 125 124 9
a 125 137 10
a 137 125 10
a 127 139 5
a 139 127 5
a 127 128 9
a 128 127 9
a 128 140 9
a 140 128 9
a 128 129 6
a 129 128 6
a 129 130 5
a 130 129 5
a 130 142 10
a 142 130 10
a 130 131 3
a 131 130 3
a 131 143 9
a 143 131 9
a 131 132 3
a 132 131 3
a 132 144 10
a 144 132 10
a 133 134 4
a 134 133 4
a 134 135 7
a 135 134 7
a 135 136 4
a 136 135 4
a 136 137 2
a 137 136 2
a 137 138 9
a 138 137 9
a 138 139 8
a 139 138 8
a 139 140 3
a 140 139 3
a 142 143 4
a 143 142 4
a 143 144 10
a 144 143 10
